2
1000 1000 
50
641 275 30
376 287 72
448 602 4
391 555 88
537 279 54
221 706 64
775 571 90
733 606 26
629 545 94
595 321 28
365 668 72
472 718 49
449 406 54
631 465 19
349 627 28
339 226 61
332 597 84
262 271 23
263 382 67
668 464 53
210 249 54
223 272 16
439 666 9
793 563 54
217 497 77
245 603 80
211 612 68
247 458 39
686 275 25
264 395 74
311 753 14
563 282 53
351 514 35
411 783 100
474 623 39
474 367 82
545 549 62
420 700 80
632 556 94
715 649 4
401 512 100
225 480 93
319 484 95
417 659 8
453 738 7
559 655 90
468 541 84
715 732 10
233 560 13
555 758 63
